row=8;
column=8;
Board=[|5,1,8,7,6,4,2,3|3,7,6,8,4,2,1,5|1,6,4,2,5,7,3,8|6,8,1,5,2,3,4,7|7,4,3,1,8,5,6,2|8,5,2,4,3,6,7,1|2,3,7,6,1,8,5,4|4,2,5,3,7,1,8,6|];
horizontal=[|1,0,1,1,1,1,0|0,1,0,1,1,1,0|0,1,1,0,0,1,0|0,1,0,1,0,0,0|1,1,1,0,1,0,1|1,1,0,1,0,0,1|0,0,1,1,0,1,1|1,0,1,0,1,0,1|];
vertical=[|1,0,1,0,1,1,1,0|1,1,1,1,0,0,0,0|0,0,1,0,1,1,0,1|0,1,0,1,0,0,0,1|0,0,1,0,1,0,0,1|1,1,0,0,1,0,1,0|0,1,1,1,0,1,0,0|];
